1	11	1	8	29	100	0	0	0	0	0	0
2000	1	0	0	0	0	0	0	0	0	0	0
250	1	0	209.92	0.14	1	0	0	0	0	0	0
250	1	0	209.92	0.14	1	0	0	0	0	0	0
250	1	0	209.92	0.14	1	0	0	0	0	0	0
250	1	0	209.92	0.14	1	0	0	0	0	0	0
250	1	0	209.92	0.14	1	0	0	0	0	0	0
250	1	0	209.92	0.14	1	0	0	0	0	0	0
250	1	0	209.92	0.14	1	0	0	0	0	0	0
250	1	0	209.92	0.14	1	0	0	0	0	0	0
250	1	0	209.92	0.14	1	0	0	0	0	0	0
250	1	0	209.92	0.14	1	0	0	0	0	0	0
250	1	0	209.92	0.14	1	0	0	0	0	0	0
50	150	0	0	0	0	960	0	0	99999	0	0
25	25	0	0	0	0	960	0	0	99999	0	0
50	25	0	0	0	0	960	0	0	99999	0	0
75	25	0	0	0	0	960	0	0	99999	0	0
25	50	0	0	0	0	960	0	0	99999	0	0
75	50	0	0	0	0	960	0	0	99999	0	0
25	75	0	0	0	0	960	0	0	99999	0	0
50	75	0	0	0	0	960	0	0	99999	0	0
75	75	0	0	0	0	960	0	0	99999	0	0
25	25	0	0	0	0	960	0	0	0	0	0
50	25	0	0	0	0	960	0	0	0	0	0
75	25	0	0	0	0	960	0	0	0	0	0
25	50	0	0	0	0	960	0	0	0	0	0
75	50	0	0	0	0	960	0	0	0	0	0
25	75	0	0	0	0	960	0	0	0	0	0
50	75	0	0	0	0	960	0	0	0	0	0
75	75	0	0	0	0	960	0	0	0	0	0
40      50      0       0       0       0       240     0       0       0       0       0
73      52      0       0       0       0       240     0       0       0       0       0
90      55      0       0       0       0       240     0       0       0       0       0
55      79      0       0       0       0       240     0       0       0       0       0
69      89      0       0       0       0       240     0       0       0       0       0
32      80      0       0       0       0       240     0       0       0       0       0
39      96      0       0       0       0       240     0       0       0       0       0
23      80      0       0       0       0       240     0       0       0       0       0
4	83	0	0	0	0	960	0	0	0	0	0
18	58	0	0	0	0	960	0	0	0	0	0
1	56	0	0	0	0	960	0	0	0	0	0
13	31	0	0	0	0	960	0	0	0	0	0
-5	38	0	0	0	0	960	0	0	0	0	0
26	37	0	0	0	0	960	0	0	0	0	0
28	13	0	0	0	0	960	0	0	0	0	0
39	31	0	0	0	0	960	0	0	0	0	0
48	11	0	0	0	0	960	0	0	0	0	0
59	17	0	0	0	0	960	0	0	0	0	0
73	23	0	0	0	0	960	0	0	0	0	0
74	32	0	0	0	0	960	0	0	0	0	0
90	44	0	0	0	0	960	0	0	0	0	0
25	85	20	6	14	401	521	10	0	0	0	0
22	75	30	9	21	101	1020	10	0	0	0	0
22	85	10	3	7	101	1011	10	0	0	0	0
20	80	40	10	30	813	933	10	0	0	0	0
20	85	20	5	15	101	1010	10	0	0	0	0
18	75	20	5	15	101	1017	10	0	0	0	0
15	75	20	4	16	230	350	10	0	0	0	0
15	80	10	2	8	541	661	10	0	0	0	0
10	35	20	6	14	101	1017	10	0	0	0	0
10	40	30	8	22	101	1019	10	0	0	0	0
8	40	40	8	32	101	1017	10	0	0	0	0
8	45	20	4	16	898	1018	10	0	0	0	0
5	35	10	1	9	101	1012	10	0	0	0	0
5	45	10	1	9	101	1015	10	0	0	0	0
2	40	20	1	19	849	969	10	0	0	0	0
0	40	20	0	20	281	401	10	0	0	0	0
0	45	20	0	20	277	397	10	0	0	0	0
44	5	20	2	18	101	1005	10	0	0	0	0
42	10	40	10	30	101	1010	10	0	0	0	0
42	15	10	4	6	309	429	10	0	0	0	0
40	5	10	1	9	101	1006	10	0	0	0	0
40	15	40	15	25	101	1016	10	0	0	0	0
38	5	30	4	26	101	1005	10	0	0	0	0
38	15	10	4	6	101	1015	10	0	0	0	0
35	5	20	3	17	101	1005	10	0	0	0	0
95	30	30	9	21	101	992	10	0	0	0	0
95	35	20	7	13	776	896	10	0	0	0	0
92	30	10	3	7	101	995	10	0	0	0	0
90	35	10	4	6	602	722	10	0	0	0	0
88	30	10	3	7	517	637	10	0	0	0	0
88	35	20	8	12	101	1000	10	0	0	0	0
87	30	10	3	7	101	999	10	0	0	0	0
85	25	10	3	7	101	999	10	0	0	0	0
85	35	30	12	18	101	1003	10	0	0	0	0
67	85	20	16	4	101	1006	10	0	0	0	0
65	85	40	31	9	618	738	10	0	0	0	0
65	82	10	8	2	353	473	10	0	0	0	0
62	80	30	23	7	206	326	10	0	0	0	0
60	80	10	8	2	852	972	10	0	0	0	0
60	85	30	21	9	613	733	10	0	0	0	0
58	75	20	15	5	358	478	10	0	0	0	0
55	80	10	7	3	621	741	10	0	0	0	0
55	85	20	13	7	101	1012	10	0	0	0	0
55	82	10	7	3	551	671	10	0	0	0	0
20	82	10	2	8	101	1013	10	0	0	0	0
18	80	10	2	8	893	1013	10	0	0	0	0
2	45	10	0	10	101	1012	10	0	0	0	0
42	5	10	1	9	101	1005	10	0	0	0	0
42	12	10	3	7	101	1012	10	0	0	0	0
72	35	30	15	15	101	1015	10	0	0	0	0
55	20	19	7	12	101	1017	10	0	0	0	0
25	30	3	3	0	654	774	10	0	0	0	0
20	50	5	2	3	101	1031	10	0	0	0	0
55	60	16	15	1	658	778	10	0	0	0	0
30	60	16	8	8	101	1036	10	0	0	0	0
50	35	19	13	6	285	405	10	0	0	0	0
30	25	23	19	4	327	447	10	0	0	0	0
15	10	20	13	7	101	1003	10	0	0	0	0
10	20	19	10	9	101	1008	10	0	0	0	0
15	60	17	4	13	101	1024	10	0	0	0	0
45	65	9	6	3	719	839	10	0	0	0	0
65	35	3	2	1	101	1021	10	0	0	0	0
65	20	6	2	4	101	1011	10	0	0	0	0
45	30	17	11	6	729	849	10	0	0	0	0
35	40	16	14	2	129	249	10	0	0	0	0
41	37	16	14	2	685	805	10	0	0	0	0
64	42	9	6	3	101	1025	10	0	0	0	0
40	60	21	14	7	845	965	10	0	0	0	0
31	52	27	16	11	111	231	10	0	0	0	0
35	69	23	12	11	101	1031	10	0	0	0	0
65	55	14	12	2	896	1016	10	0	0	0	0
63	65	8	8	0	432	552	10	0	0	0	0
2	60	5	0	5	391	511	10	0	0	0	0
20	20	8	8	0	101	1014	10	0	0	0	0
5	5	16	16	0	101	993	10	0	0	0	0
60	12	31	6	25	148	268	10	0	0	0	0
23	3	7	1	6	151	271	10	0	0	0	0
8	56	27	4	23	453	573	10	0	0	0	0
6	68	30	3	27	140	260	10	0	0	0	0
47	47	13	13	0	101	1043	10	0	0	0	0
49	58	10	8	2	101	1038	10	0	0	0	0
27	43	9	6	3	610	730	10	0	0	0	0
37	31	14	12	2	101	1031	10	0	0	0	0
57	29	18	9	9	903	1023	10	0	0	0	0
63	23	2	1	1	199	319	10	0	0	0	0
21	24	28	25	3	474	594	10	0	0	0	0
12	24	13	7	6	482	602	10	0	0	0	0
24	58	19	8	11	662	782	10	0	0	0	0
67	5	25	2	23	878	998	10	0	0	0	0
37	47	6	5	1	181	301	10	0	0	0	0
49	42	13	11	2	540	660	10	0	0	0	0
53	43	14	11	3	796	916	10	0	0	0	0
61	52	3	3	0	101	1029	10	0	0	0	0
57	48	23	19	4	101	1033	10	0	0	0	0
56	37	6	4	2	101	1030	10	0	0	0	0
55	54	26	26	0	378	498	10	0	0	0	0
4	18	35	8	27	101	1002	10	0	0	0	0
26	52	9	5	4	101	1036	10	0	0	0	0
26	35	15	11	4	122	242	10	0	0	0	0
31	67	3	1	2	101	1031	10	0	0	0	0
